outputs/case_4.model.txt
prohibited_related_party_trading = True
insider_trading_restriction = False
internal_control_change_completed_within_deadline = False
regulator_notified_change = False
regulator_exemption_for_performance_fee = False
profit_loss_sharing_agreement = False
matched_principal_trading = False
trading_through_exchange = True
not_intentional_matched_principal = True
regulator_exemption_for_subdelegate = False
subdelegate_or_assign_contract = False
improper_order_account_transfer = False
regulator_exemption_for_order_transfer = False
investment_decision_based_on_analysis_report = False
reasonable_explanation_provided = True
required_reporting_done = False
personnel_civil_liability_in_specific_business = False
behavior_within_authorized_scope = False
serious_violation_affecting_business = True
business_operated_according_law = True
internal_control_system_established = True
use_insider_info_for_others = False
internal_control_change_approved_by_board = True
use_client_account_for_own_trading = False
other_detrimental_behavior = False
internal_control_change_recorded = True
business_operated_according_internal_control = True
detrimental_trading = False
prohibited_behavior_2 = True
internal_control_change_approved = True
insider_trading_reporting = False
fiduciary_duty_compliance = True
confidentiality_compliance = True
internal_control_operated_according_law = True
violation_of_law_or_order = False
transaction_data_confidential = True
serious_violation_penalty = True
all_prohibited_behaviors_compliance = True
fiduciary_and_confidentiality_compliance = True
prohibited_behavior_4 = True
authorized_behavior_presumption = True
prohibited_behavior_3 = True
prohibited_behavior_6 = True
internal_control_compliance = True
internal_control_established = True
other_related_data_confidential = True
violation_penalty_applicable = False
good_faith_principle = True
prohibited_behavior_7 = True
prohibited_behavior_9 = True
prohibited_behavior_8 = True
personnel_qualification_meets_regulation = True
personnel_prohibited_behavior = False
personnel_qualification_compliance = True
internal_control_change_complied_with_regulator = True
prohibited_behavior_5 = True
duty_of_care = True
duty_of_loyalty = True
prohibited_personnel_behavior_compliance = True
penalty = False
personal_data_confidential = True
prohibited_personnel_behavior_and_serious_violation = False
prohibited_behavior_1 = True